Gurobi Optimizer version 9.1.2 build v9.1.2rc0 (linux64)
Thread count: 36 physical cores, 72 logical processors, using up to 32 threads
Optimize a model with 12 rows, 57 columns and 590 nonzeros
Model fingerprint: 0xf32eec78
Model has 47 quadratic constraints
Coefficient statistics:
  Matrix range     [2e-05, 3e+00]
  QMatrix range    [1e+00, 1e+00]
  QLMatrix range   [1e+00, 1e+00]
  Objective range  [8e-03, 7e-01]
  Bounds range     [1e+00, 1e+00]
  RHS range        [1e+00, 1e+00]
Presolve removed 9 rows and 0 columns

Continuous model is non-convex -- solving as a MIP.

Presolve removed 9 rows and 0 columns
Presolve time: 0.00s
Presolved: 189 rows, 57 columns, 443 nonzeros
Presolved model has 47 bilinear constraint(s)
Variable types: 57 continuous, 0 integer (0 binary)

Root relaxation: objective -1.743721e+00, 44 iterations, 0.00 seconds

    Nodes    |    Current Node    |     Objective Bounds      |     Work
 Expl Unexpl |  Obj  Depth IntInf | Incumbent    BestBd   Gap | It/Node Time

     0     0   -1.74372    0   38          -   -1.74372      -     -    0s
H    0     0                       0.6147548   -1.74372   384%     -    0s
     0     0   -1.64739    0    1    0.61475   -1.64739   368%     -    0s
H    0     0                      -1.6450460   -1.64739  0.14%     -    0s
     0     0     cutoff    0        -1.64505   -1.64505  0.00%     -    0s

Cutting planes:
  RLT: 25
  BQP: 3

Explored 1 nodes (76 simplex iterations) in 0.01 seconds
Thread count was 32 (of 72 available processors)

Solution count 2: -1.64505 0.614755 
No other solutions better than -1.64505

Optimal solution found (tolerance 1.00e-04)
Best objective -1.645045978473e+00, best bound -1.645045978473e+00, gap 0.0000%

User-callback calls 78, time in user-callback 0.00 sec
Gurobi Optimizer version 9.1.2 build v9.1.2rc0 (linux64)
Thread count: 36 physical cores, 72 logical processors, using up to 32 threads
Optimize a model with 60 rows, 300 columns and 15500 nonzeros
Model fingerprint: 0x16e07133
Model has 250 quadratic constraints
Coefficient statistics:
  Matrix range     [1e-06, 4e+00]
  QMatrix range    [1e+00, 1e+00]
  QLMatrix range   [1e+00, 1e+00]
  Objective range  [2e-04, 1e+00]
  Bounds range     [1e+00, 1e+00]
  RHS range        [1e+00, 1e+00]
Presolve removed 10 rows and 0 columns

Continuous model is non-convex -- solving as a MIP.

Presolve removed 10 rows and 0 columns
Presolve time: 0.01s
Presolved: 1050 rows, 300 columns, 14461 nonzeros
Presolved model has 250 bilinear constraint(s)
Variable types: 300 continuous, 0 integer (0 binary)

Root relaxation: objective -2.444151e+01, 351 iterations, 0.02 seconds

    Nodes    |    Current Node    |     Objective Bounds      |     Work
 Expl Unexpl |  Obj  Depth IntInf | Incumbent    BestBd   Gap | It/Node Time

     0     0  -24.44151    0  199          -  -24.44151      -     -    0s
H    0     0                      -8.4013442  -24.44151   191%     -    0s
     0     0  -22.98955    0  196   -8.40134  -22.98955   174%     -    0s
H    0     0                     -12.5791146  -22.98955  82.8%     -    0s
     0     0  -22.63882    0  151  -12.57911  -22.63882  80.0%     -    0s
H    0     0                     -20.0691607  -22.63882  12.8%     -    0s
     0     2  -22.63882    0  151  -20.06916  -22.63882  12.8%     -    0s
* 1725  1357              68     -20.0700295  -21.72390  8.24%  52.2    1s
* 1851  1458              72     -20.0700429  -21.72390  8.24%  50.4    2s
* 2177  1688              74     -20.0809279  -21.72390  8.18%  46.4    2s
* 2264  1783              71     -20.9100890  -21.68187  3.69%  45.5    2s
* 2265  1783              71     -20.9100970  -21.68187  3.69%  45.5    2s
* 3478  1774              42     -20.9385488  -21.53410  2.84%  49.6    2s
* 4247  1891              43     -20.9387722  -21.51031  2.73%  46.6    3s
* 4249  1891              44     -20.9387993  -21.51031  2.73%  46.6    3s
* 4466  1938              68     -20.9441718  -21.36619  2.01%  45.7    3s
* 4468  1938              69     -20.9442435  -21.36619  2.01%  45.7    3s
* 6983   536              74     -20.9540852  -21.36619  1.97%  50.9    4s
* 6986   494              74     -20.9541035  -21.36619  1.97%  50.9    4s
* 7030   455              69     -20.9634280  -21.36619  1.92%  50.6    4s
  7031   455  -20.99504   31   22  -20.96343  -21.36619  1.92%  50.7    5s
* 7545   668              61     -20.9696560  -21.36619  1.89%  49.5    5s
* 7749   749              65     -20.9696640  -21.36619  1.89%  48.9    5s
* 7750   749              65     -20.9696687  -21.36619  1.89%  48.9    5s
* 7752   749              65     -20.9698668  -21.36619  1.89%  48.9    5s
* 7869   844              58     -20.9843479  -21.36619  1.82%  48.6    5s
* 8484  1002              56     -20.9843548  -21.36619  1.82%  47.0    5s
* 8530  1169              74     -20.9896847  -21.36619  1.79%  47.0    5s
* 8684  1169              57     -20.9977577  -21.36619  1.75%  46.5    5s
* 9656  1239              63     -21.0015776  -21.36619  1.74%  44.7    5s
* 9657  1239              63     -21.0015776  -21.36619  1.74%  44.7    5s
*10716   971              54     -21.0015861  -21.35337  1.68%  42.0    5s
*10717   971              54     -21.0016147  -21.35337  1.67%  42.0    5s
*10925   971              53     -21.0017305  -21.35337  1.67%  41.4    5s
*10926   971              53     -21.0019200  -21.35337  1.67%  41.4    5s
*11270   891              51     -21.0019575  -21.35337  1.67%  40.5    5s
*11274   891              53     -21.0019796  -21.35337  1.67%  40.5    5s
*11277   891              53     -21.0019798  -21.35337  1.67%  40.5    5s
*11542   891              52     -21.0021330  -21.35337  1.67%  39.7    5s
*11549   891              55     -21.0021362  -21.35337  1.67%  39.7    5s
*11713   734              50     -21.0021908  -21.35337  1.67%  39.3    5s
*11714   734              50     -21.0021930  -21.35337  1.67%  39.3    5s
*12757   430              56     -21.0021974  -21.13826  0.65%  36.4    6s
*12996   430              59     -21.0022063  -21.13605  0.64%  35.8    6s
*13342   242              59     -21.0022080  -21.00241  0.00%  35.0    6s

Explored 13759 nodes (468144 simplex iterations) in 6.13 seconds
Thread count was 32 (of 72 available processors)

Solution count 10: -21.0022 -21.0022 -21.0022 ... -21.0019

Optimal solution found (tolerance 1.00e-04)
Best objective -2.100220799369e+01, best bound -2.100240535249e+01, gap 0.0009%

User-callback calls 28347, time in user-callback 0.01 sec



objective value: -21.002207993687406
objective bound: -21.002405352485262
x_opt: [0.0, 1.0, 1.0, 0.0, 0.0, 0.0, 1.0, 1.0, 0.0, 0.0, 0.2588499933319348, 0.4061881947638486, 0.0, 1.0, 1.0, 1.0, 0.0, 1.0, 0.0, 0.0, 0.0, 1.0, 1.0, 1.0, 0.0, 1.0, 1.0, 1.0, 0.0, 0.8739350094947416, 1.0, 0.7632241705516464, 0.0, 0.20444714799622554, 1.0, 1.0, 1.0, 1.0, 0.4469610237521697, 1.0, 0.8811807939146845, 0.16441676071834582, 1.0, 0.0, 0.0, 0.7300838912817538, 0.13153862508425704, 0.039622537183734985, 0.0, 1.0]
GUROBI solution time: 6.134692907333374

